120 154 121 135 99 86 150 134 110 155 180 87 0 91 112 24 168 2 63 27 162 98 146 113 105 160 181 165 30 118 17 94 18 72 153 84 49 178 124 136 82 195 142 126 23 109 78 198 183 149 174 141 115 191 158 197 35 129 179 10 41 79 114 81 159 143 11 66 133 194 69 60 64 151 46 103 106 5 116 171 92 173 88 22 96 51 127 83 90 80 156 102 187 140 70 3 12 33 55 128 175 111 104 125 137 31 37 21 184 71 73 67 108 186 4 144 167 75 38 39 54 1 53 43 59 42 132 177 14 152 138 57 172 62 199 20 13 117 101 8 182 188 189 85 68 131 192 89 100 16 65 25 119 164 163 176 147 157 170 145 93 97 190 29 19 95 26 6 56 28 123 50 166 139 161 169 9 34 52 58 76 61 36 130 32 44 47 122 40 77 15 193 107 185 74 45 7 148 48 196